p tw 1615 1734
1 198
1 1510
2 54
2 1511
3 200
3 1512
4 56
4 1513
5 55
5 1514
6 58
6 1515
7 60
7 1516
8 57
8 1517
9 62
9 1518
10 59
10 1519
11 64
11 1520
12 209
12 1521
13 66
13 1522
14 61
14 1523
15 68
15 1524
16 63
16 1525
17 70
17 1526
18 65
18 1527
19 72
19 1528
20 217
20 1529
21 74
21 1530
22 67
22 1531
23 76
23 1532
24 69
24 1533
25 78
25 1534
26 71
26 1535
27 80
27 1536
28 73
28 1537
29 226
29 1538
30 82
30 1539
31 75
31 1540
32 84
32 1541
33 77
33 1542
34 86
34 1543
35 79
35 1544
36 88
36 1545
37 81
37 1546
38 83
38 1547
39 90
39 1548
40 85
40 1549
41 92
41 1550
42 87
42 1551
43 94
43 1552
44 89
44 1553
45 91
45 1554
46 96
46 1555
47 93
47 1556
48 98
48 1557
49 95
49 1558
50 97
50 1559
51 100
51 1560
52 99
52 1561
53 101
53 1562
54 102
55 103
56 104
57 105
58 106
59 107
60 108
61 109
62 110
63 111
64 112
65 113
66 114
67 115
68 116
69 117
70 118
71 119
72 120
73 121
74 122
75 123
76 124
77 125
78 126
79 127
80 128
81 129
82 130
83 131
84 132
85 133
86 134
87 135
88 136
89 137
90 138
91 139
92 140
93 141
94 142
95 143
96 144
97 145
98 146
99 147
100 148
101 149
102 103
102 150
103 151
104 105
104 152
105 153
106 107
106 154
107 155
108 109
108 156
109 157
110 111
110 158
111 159
112 113
112 160
113 161
114 115
114 162
115 163
116 117
116 164
117 165
118 119
118 166
119 167
120 121
120 168
121 169
122 123
122 170
123 171
124 125
124 172
125 173
126 127
126 174
127 175
128 129
128 176
129 177
130 131
130 178
131 179
132 133
132 180
133 181
134 135
134 182
135 183
136 137
136 184
137 185
138 139
138 186
139 187
140 141
140 188
141 189
142 143
142 190
143 191
144 145
144 192
145 193
146 147
146 194
147 195
148 149
148 196
149 197
150 199
151 202
152 201
153 205
154 203
155 207
156 204
157 211
158 206
159 213
160 208
161 215
162 210
163 219
164 212
165 221
166 214
167 223
168 216
169 225
170 218
171 228
172 220
173 230
174 222
175 232
176 224
177 234
178 227
179 235
180 229
181 237
182 231
183 239
184 233
185 241
186 236
187 242
188 238
189 244
190 240
191 246
192 243
193 247
194 245
195 249
196 248
197 250
198 251
199 366
200 253
201 252
202 255
203 370
204 254
205 257
206 256
207 259
208 375
209 261
210 377
211 263
212 258
213 265
214 260
215 267
216 383
217 269
218 262
219 271
220 264
221 273
222 266
223 275
224 268
225 392
226 393
227 270
228 277
229 272
230 279
231 274
232 281
233 276
234 401
235 402
236 278
237 283
238 280
239 285
240 282
241 408
242 409
243 284
244 287
245 286
246 413
247 414
248 288
249 416
250 417
251 289
252 290
253 291
254 292
255 293
256 294
257 295
258 296
259 297
260 298
261 299
262 300
263 301
264 302
265 303
266 304
267 305
268 306
269 307
270 308
271 309
272 310
273 311
274 312
275 313
276 314
277 315
278 316
279 317
280 318
281 319
282 320
283 321
284 322
285 323
286 324
287 325
288 326
289 290
289 327
290 328
291 292
291 329
292 330
293 294
293 331
294 332
295 296
295 333
296 334
297 298
297 335
298 336
299 300
299 337
300 338
301 302
301 339
302 340
303 304
303 341
304 342
305 306
305 343
306 344
307 308
307 345
308 346
309 310
309 347
310 348
311 312
311 349
312 350
313 314
313 351
314 352
315 316
315 353
316 354
317 318
317 355
318 356
319 320
319 357
320 358
321 322
321 359
322 360
323 324
323 361
324 362
325 326
325 363
326 364
327 365
328 368
329 367
330 371
331 369
332 373
333 372
334 379
335 374
336 381
337 376
338 385
339 378
340 387
341 380
342 389
343 382
344 391
345 384
346 394
347 386
348 396
349 388
350 398
351 390
352 400
353 395
354 403
355 397
356 405
357 399
358 407
359 404
360 410
361 406
362 412
363 411
364 415
365 418
366 419
367 420
368 421
369 422
370 423
371 562
372 424
373 425
374 426
375 427
376 428
377 429
378 430
379 431
380 432
381 433
382 434
383 435
384 436
385 437
386 438
387 439
388 440
389 441
390 442
391 443
392 583
393 444
394 445
395 446
396 447
397 448
398 449
399 450
400 451
401 592
402 452
403 453
404 454
405 455
406 456
407 457
408 599
409 458
410 459
411 460
412 461
413 604
414 462
415 463
416 607
417 608
418 464
419 465
420 466
421 467
422 468
423 469
424 470
425 471
426 472
427 473
428 474
429 475
430 476
431 477
432 478
433 479
434 480
435 481
436 482
437 483
438 484
439 485
440 486
441 487
442 488
443 489
444 490
445 491
446 492
447 493
448 494
449 495
450 496
451 497
452 498
453 499
454 500
455 501
456 502
457 503
458 504
459 505
460 506
461 507
462 508
463 509
464 465
464 510
465 511
466 467
466 512
467 513
468 469
468 514
469 515
470 471
470 516
471 517
472 473
472 518
473 519
474 475
474 520
475 521
476 477
476 522
477 523
478 479
478 524
479 525
480 481
480 526
481 527
482 483
482 528
483 529
484 485
484 530
485 531
486 487
486 532
487 533
488 489
488 534
489 535
490 491
490 536
491 537
492 493
492 538
493 539
494 495
494 540
495 541
496 497
496 542
497 543
498 499
498 544
499 545
500 501
500 546
501 547
502 503
502 548
503 549
504 505
504 550
505 551
506 507
506 552
507 553
508 509
508 554
509 555
510 556
511 557
512 558
513 559
514 560
515 561
516 563
517 564
518 565
519 566
520 567
521 568
522 569
523 570
524 571
525 572
526 573
527 574
528 575
529 576
530 577
531 578
532 579
533 580
534 581
535 582
536 584
537 585
538 586
539 587
540 588
541 589
542 590
543 591
544 593
545 594
546 595
547 596
548 597
549 598
550 600
551 601
552 602
553 603
554 605
555 606
556 729
557 730
558 731
559 609
560 610
561 734
562 611
563 612
564 613
565 614
566 739
567 740
568 615
569 616
570 617
571 618
572 619
573 620
574 747
575 748
576 621
577 622
578 623
579 624
580 625
581 626
582 627
583 628
584 757
585 629
586 630
587 631
588 632
589 633
590 634
591 635
592 636
593 766
594 637
595 638
596 639
597 640
598 641
599 642
600 773
601 643
602 644
603 645
604 646
605 778
606 647
607 648
608 781
609 649
610 650
611 651
612 652
613 653
614 654
615 655
616 656
617 657
618 658
619 659
620 660
621 661
622 662
623 663
624 664
625 665
626 666
627 667
628 668
629 669
630 670
631 671
632 672
633 673
634 674
635 675
636 676
637 677
638 678
639 679
640 680
641 681
642 682
643 683
644 684
645 685
646 686
647 687
648 688
649 650
649 689
650 690
651 652
651 691
652 692
653 654
653 693
654 694
655 656
655 695
656 696
657 658
657 697
658 698
659 660
659 699
660 700
661 662
661 701
662 702
663 664
663 703
664 704
665 666
665 705
666 706
667 668
667 707
668 708
669 670
669 709
670 710
671 672
671 711
672 712
673 674
673 713
674 714
675 676
675 715
676 716
677 678
677 717
678 718
679 680
679 719
680 720
681 682
681 721
682 722
683 684
683 723
684 724
685 686
685 725
686 726
687 688
687 727
688 728
689 732
690 733
691 735
692 736
693 737
694 738
695 741
696 742
697 743
698 744
699 745
700 746
701 749
702 750
703 751
704 752
705 753
706 754
707 755
708 756
709 758
710 759
711 760
712 761
713 762
714 763
715 764
716 765
717 767
718 768
719 769
720 770
721 771
722 772
723 774
724 775
725 776
726 777
727 779
728 780
729 782
730 783
731 784
732 785
733 786
734 787
735 926
736 788
737 789
738 790
739 791
740 792
741 793
742 794
743 795
744 796
745 797
746 798
747 799
748 800
749 801
750 802
751 803
752 804
753 805
754 806
755 807
756 947
757 808
758 809
759 810
760 811
761 812
762 813
763 814
764 815
765 956
766 816
767 817
768 818
769 819
770 820
771 821
772 963
773 822
774 823
775 824
776 825
777 968
778 826
779 827
780 971
781 972
782 828
783 829
784 830
785 831
786 832
787 833
788 834
789 835
790 836
791 837
792 838
793 839
794 840
795 841
796 842
797 843
798 844
799 845
800 846
801 847
802 848
803 849
804 850
805 851
806 852
807 853
808 854
809 855
810 856
811 857
812 858
813 859
814 860
815 861
816 862
817 863
818 864
819 865
820 866
821 867
822 868
823 869
824 870
825 871
826 872
827 873
828 829
828 874
829 875
830 831
830 876
831 877
832 833
832 878
833 879
834 835
834 880
835 881
836 837
836 882
837 883
838 839
838 884
839 885
840 841
840 886
841 887
842 843
842 888
843 889
844 845
844 890
845 891
846 847
846 892
847 893
848 849
848 894
849 895
850 851
850 896
851 897
852 853
852 898
853 899
854 855
854 900
855 901
856 857
856 902
857 903
858 859
858 904
859 905
860 861
860 906
861 907
862 863
862 908
863 909
864 865
864 910
865 911
866 867
866 912
867 913
868 869
868 914
869 915
870 871
870 916
871 917
872 873
872 918
873 919
874 920
875 921
876 922
877 923
878 924
879 925
880 927
881 928
882 929
883 930
884 931
885 932
886 933
887 934
888 935
889 936
890 937
891 938
892 939
893 940
894 941
895 942
896 943
897 944
898 945
899 946
900 948
901 949
902 950
903 951
904 952
905 953
906 954
907 955
908 957
909 958
910 959
911 960
912 961
913 962
914 964
915 965
916 966
917 967
918 969
919 970
920 1093
921 1094
922 1095
923 973
924 974
925 1098
926 975
927 976
928 977
929 978
930 1103
931 1104
932 979
933 980
934 981
935 982
936 983
937 984
938 1111
939 1112
940 985
941 986
942 987
943 988
944 989
945 990
946 991
947 992
948 1121
949 993
950 994
951 995
952 996
953 997
954 998
955 999
956 1000
957 1130
958 1001
959 1002
960 1003
961 1004
962 1005
963 1006
964 1137
965 1007
966 1008
967 1009
968 1010
969 1142
970 1011
971 1012
972 1145
973 1013
974 1014
975 1015
976 1016
977 1017
978 1018
979 1019
980 1020
981 1021
982 1022
983 1023
984 1024
985 1025
986 1026
987 1027
988 1028
989 1029
990 1030
991 1031
992 1032
993 1033
994 1034
995 1035
996 1036
997 1037
998 1038
999 1039
1000 1040
1001 1041
1002 1042
1003 1043
1004 1044
1005 1045
1006 1046
1007 1047
1008 1048
1009 1049
1010 1050
1011 1051
1012 1052
1013 1014
1013 1053
1014 1054
1015 1016
1015 1055
1016 1056
1017 1018
1017 1057
1018 1058
1019 1020
1019 1059
1020 1060
1021 1022
1021 1061
1022 1062
1023 1024
1023 1063
1024 1064
1025 1026
1025 1065
1026 1066
1027 1028
1027 1067
1028 1068
1029 1030
1029 1069
1030 1070
1031 1032
1031 1071
1032 1072
1033 1034
1033 1073
1034 1074
1035 1036
1035 1075
1036 1076
1037 1038
1037 1077
1038 1078
1039 1040
1039 1079
1040 1080
1041 1042
1041 1081
1042 1082
1043 1044
1043 1083
1044 1084
1045 1046
1045 1085
1046 1086
1047 1048
1047 1087
1048 1088
1049 1050
1049 1089
1050 1090
1051 1052
1051 1091
1052 1092
1053 1096
1054 1097
1055 1099
1056 1100
1057 1101
1058 1102
1059 1105
1060 1106
1061 1107
1062 1108
1063 1109
1064 1110
1065 1113
1066 1114
1067 1115
1068 1116
1069 1117
1070 1118
1071 1119
1072 1120
1073 1122
1074 1123
1075 1124
1076 1125
1077 1126
1078 1127
1079 1128
1080 1129
1081 1131
1082 1132
1083 1133
1084 1134
1085 1135
1086 1136
1087 1138
1088 1139
1089 1140
1090 1141
1091 1143
1092 1144
1093 1290
1094 1146
1095 1292
1096 1148
1097 1147
1098 1150
1099 1152
1100 1149
1101 1154
1102 1151
1103 1156
1104 1301
1105 1158
1106 1153
1107 1160
1108 1155
1109 1162
1110 1157
1111 1164
1112 1309
1113 1166
1114 1159
1115 1168
1116 1161
1117 1170
1118 1163
1119 1172
1120 1165
1121 1318
1122 1174
1123 1167
1124 1176
1125 1169
1126 1178
1127 1171
1128 1180
1129 1173
1130 1175
1131 1182
1132 1177
1133 1184
1134 1179
1135 1186
1136 1181
1137 1183
1138 1188
1139 1185
1140 1190
1141 1187
1142 1189
1143 1192
1144 1191
1145 1193
1146 1194
1147 1195
1148 1196
1149 1197
1150 1198
1151 1199
1152 1200
1153 1201
1154 1202
1155 1203
1156 1204
1157 1205
1158 1206
1159 1207
1160 1208
1161 1209
1162 1210
1163 1211
1164 1212
1165 1213
1166 1214
1167 1215
1168 1216
1169 1217
1170 1218
1171 1219
1172 1220
1173 1221
1174 1222
1175 1223
1176 1224
1177 1225
1178 1226
1179 1227
1180 1228
1181 1229
1182 1230
1183 1231
1184 1232
1185 1233
1186 1234
1187 1235
1188 1236
1189 1237
1190 1238
1191 1239
1192 1240
1193 1241
1194 1195
1194 1242
1195 1243
1196 1197
1196 1244
1197 1245
1198 1199
1198 1246
1199 1247
1200 1201
1200 1248
1201 1249
1202 1203
1202 1250
1203 1251
1204 1205
1204 1252
1205 1253
1206 1207
1206 1254
1207 1255
1208 1209
1208 1256
1209 1257
1210 1211
1210 1258
1211 1259
1212 1213
1212 1260
1213 1261
1214 1215
1214 1262
1215 1263
1216 1217
1216 1264
1217 1265
1218 1219
1218 1266
1219 1267
1220 1221
1220 1268
1221 1269
1222 1223
1222 1270
1223 1271
1224 1225
1224 1272
1225 1273
1226 1227
1226 1274
1227 1275
1228 1229
1228 1276
1229 1277
1230 1231
1230 1278
1231 1279
1232 1233
1232 1280
1233 1281
1234 1235
1234 1282
1235 1283
1236 1237
1236 1284
1237 1285
1238 1239
1238 1286
1239 1287
1240 1241
1240 1288
1241 1289
1242 1291
1243 1294
1244 1293
1245 1297
1246 1295
1247 1299
1248 1296
1249 1303
1250 1298
1251 1305
1252 1300
1253 1307
1254 1302
1255 1311
1256 1304
1257 1313
1258 1306
1259 1315
1260 1308
1261 1317
1262 1310
1263 1320
1264 1312
1265 1322
1266 1314
1267 1324
1268 1316
1269 1326
1270 1319
1271 1327
1272 1321
1273 1329
1274 1323
1275 1331
1276 1325
1277 1333
1278 1328
1279 1334
1280 1330
1281 1336
1282 1332
1283 1338
1284 1335
1285 1339
1286 1337
1287 1341
1288 1340
1289 1342
1290 1343
1291 1458
1292 1345
1293 1344
1294 1347
1295 1462
1296 1346
1297 1349
1298 1348
1299 1351
1300 1467
1301 1353
1302 1469
1303 1355
1304 1350
1305 1357
1306 1352
1307 1359
1308 1475
1309 1361
1310 1354
1311 1363
1312 1356
1313 1365
1314 1358
1315 1367
1316 1360
1317 1484
1318 1485
1319 1362
1320 1369
1321 1364
1322 1371
1323 1366
1324 1373
1325 1368
1326 1493
1327 1494
1328 1370
1329 1375
1330 1372
1331 1377
1332 1374
1333 1500
1334 1501
1335 1376
1336 1379
1337 1378
1338 1505
1339 1506
1340 1380
1341 1508
1342 1509
1343 1381
1344 1382
1345 1383
1346 1384
1347 1385
1348 1386
1349 1387
1350 1388
1351 1389
1352 1390
1353 1391
1354 1392
1355 1393
1356 1394
1357 1395
1358 1396
1359 1397
1360 1398
1361 1399
1362 1400
1363 1401
1364 1402
1365 1403
1366 1404
1367 1405
1368 1406
1369 1407
1370 1408
1371 1409
1372 1410
1373 1411
1374 1412
1375 1413
1376 1414
1377 1415
1378 1416
1379 1417
1380 1418
1381 1382
1381 1419
1382 1420
1383 1384
1383 1421
1384 1422
1385 1386
1385 1423
1386 1424
1387 1388
1387 1425
1388 1426
1389 1390
1389 1427
1390 1428
1391 1392
1391 1429
1392 1430
1393 1394
1393 1431
1394 1432
1395 1396
1395 1433
1396 1434
1397 1398
1397 1435
1398 1436
1399 1400
1399 1437
1400 1438
1401 1402
1401 1439
1402 1440
1403 1404
1403 1441
1404 1442
1405 1406
1405 1443
1406 1444
1407 1408
1407 1445
1408 1446
1409 1410
1409 1447
1410 1448
1411 1412
1411 1449
1412 1450
1413 1414
1413 1451
1414 1452
1415 1416
1415 1453
1416 1454
1417 1418
1417 1455
1418 1456
1419 1457
1420 1460
1421 1459
1422 1463
1423 1461
1424 1465
1425 1464
1426 1471
1427 1466
1428 1473
1429 1468
1430 1477
1431 1470
1432 1479
1433 1472
1434 1481
1435 1474
1436 1483
1437 1476
1438 1486
1439 1478
1440 1488
1441 1480
1442 1490
1443 1482
1444 1492
1445 1487
1446 1495
1447 1489
1448 1497
1449 1491
1450 1499
1451 1496
1452 1502
1453 1498
1454 1504
1455 1503
1456 1507
1457 1563
1458 1564
1459 1565
1460 1566
1461 1567
1462 1568
1463 1569
1464 1570
1465 1571
1466 1572
1467 1573
1468 1574
1469 1575
1470 1576
1471 1577
1472 1578
1473 1579
1474 1580
1475 1581
1476 1582
1477 1583
1478 1584
1479 1585
1480 1586
1481 1587
1482 1588
1483 1589
1484 1590
1485 1591
1486 1592
1487 1593
1488 1594
1489 1595
1490 1596
1491 1597
1492 1598
1493 1599
1494 1600
1495 1601
1496 1602
1497 1603
1498 1604
1499 1605
1500 1606
1501 1607
1502 1608
1503 1609
1504 1610
1505 1611
1506 1612
1507 1613
1508 1614
1509 1615
